# load non standard plubin bfield. Only works with NVE 
plugin load /home/carina/git_repos/mylammps-plugins/build/bfieldplugin.so 

dimension 3
boundary p p f
units lj
atom_style hybrid sphere dipole
region simbox block 0 120 0 120 0 3  
region pbox block 0 120 0 120 1.45 1.55
create_box 1 simbox
create_atoms 1 random 200 3050303 pbox 

neighbor 1.0 bin
neigh_modify check yes delay 0 every 1 


mass 1 1.0
set type 1 mass 1 
set type 1 density 1 


pair_style lj/cut/dipole/cut 1.122462048309373 10
pair_coeff 1 1  1 1   1.122462048309373 10
pair_modify shift yes
set type 1 dipole/random 49393 0.1 

#  normal time step run 
restart 10000000 dimer.restart
velocity       all create 1.0 893 dist gaussian rot yes
#thermo_modify lost warn flush yes 

fix floorC all  wall/lj126 zlo EDGE 1.0 1.0 1.122462048309373 
fix ceiling all wall/lj126 zhi EDGE 1.0 1.0 1.122462048309373
fix fmagnetic all bfield 0.0 100.0 0.0 

fix 1 all nve/sphere update dipole 
fix 2 all langevin 0.000333 0.000333 0.3 1010103 omega yes 
#fix 1 all nve 
#fix 2 all temp/berendsen 0.000333 0.00333 1.0 
timestep 0.001

compute T2 all temp/sphere
thermo_modify temp T2
thermo 50000
dump           trajdump   all atom 100000 trajectory.lammpstrj
dump_modify    trajdump   sort id    pbc yes

dump mdipole all custom 1000000 mu.dump.* id type x y z mux muy muz 
dump_modify  mdipole   sort id    pbc yes
run 1000000000
